c 33d32945 STP File, STP Format Version  1.00
c Section Comment
c Name    "DMXA0296"
c Creator "Alexander Martin and Thorsten Koch"
c Remark  "Real world VLSI problem"
c End

p sp 233 386
c
a 1 2 5
a 3 4 5
a 4 5 5
a 5 6 5
a 6 7 5
a 7 8 5
a 8 9 5
a 9 10 5
a 10 11 5
a 11 12 5
a 12 13 5
a 1 14 13
a 2 15 13
a 3 16 13
a 4 17 13
a 5 18 13
a 6 19 13
a 7 20 13
a 8 21 13
a 10 22 13
a 11 23 13
a 12 24 13
a 13 25 13
a 14 15 5
a 16 17 5
a 17 18 5
a 18 19 5
a 19 20 5
a 20 21 5
a 22 23 5
a 23 24 5
a 24 25 5
a 15 27 13
a 16 29 13
a 17 30 13
a 18 31 13
a 19 32 13
a 21 34 13
a 22 35 13
a 23 36 13
a 24 37 13
a 25 38 13
a 26 27 5
a 27 28 5
a 28 29 5
a 29 30 5
a 30 31 5
a 31 32 5
a 32 33 5
a 33 34 5
a 35 36 5
a 36 37 5
a 37 38 5
a 27 40 13
a 28 41 13
a 29 42 13
a 30 43 13
a 31 44 13
a 33 46 13
a 34 47 13
a 35 49 13
a 36 50 13
a 37 51 13
a 38 52 13
a 39 40 5
a 40 41 5
a 41 42 5
a 42 43 5
a 43 44 5
a 44 45 5
a 45 46 5
a 46 47 5
a 47 48 5
a 48 49 5
a 49 50 5
a 50 51 5
a 51 52 5
a 39 53 13
a 40 54 13
a 43 57 13
a 44 58 13
a 45 59 13
a 47 60 13
a 48 61 13
a 49 62 13
a 50 63 13
a 51 64 13
a 52 65 13
a 53 54 5
a 54 55 5
a 55 56 5
a 56 57 5
a 57 58 5
a 58 59 5
a 60 61 5
a 61 62 5
a 62 63 5
a 63 64 5
a 64 65 5
a 53 66 13
a 54 67 13
a 55 68 13
a 56 69 13
a 57 70 13
a 58 71 13
a 59 72 13
a 60 73 13
a 62 74 13
a 64 76 13
a 65 77 13
a 66 67 5
a 67 68 5
a 68 69 5
a 69 70 5
a 70 71 5
a 71 72 5
a 74 75 5
a 75 76 5
a 76 77 5
a 66 78 13
a 67 79 13
a 70 82 13
a 71 83 13
a 72 84 13
a 73 86 13
a 74 87 13
a 75 88 13
a 76 89 13
a 77 90 13
a 78 79 5
a 79 80 5
a 80 81 5
a 81 82 5
a 82 83 5
a 83 84 5
a 84 85 5
a 85 86 5
a 87 88 5
a 88 89 5
a 89 90 5
a 78 91 13
a 79 92 13
a 80 93 13
a 83 96 13
a 84 97 13
a 85 98 13
a 86 99 13
a 87 101 13
a 88 102 13
a 89 103 13
a 90 104 13
a 91 92 5
a 92 93 5
a 93 94 5
a 94 95 5
a 95 96 5
a 96 97 5
a 97 98 5
a 98 99 5
a 99 100 5
a 100 101 5
a 101 102 5
a 102 103 5
a 103 104 5
a 91 105 13
a 92 106 13
a 93 107 13
a 94 108 13
a 95 109 13
a 96 110 13
a 99 113 13
a 100 114 13
a 101 115 13
a 102 116 13
a 103 117 13
a 104 118 13
a 105 106 5
a 106 107 5
a 107 108 5
a 108 109 5
a 109 110 5
a 110 111 5
a 111 112 5
a 112 113 5
a 113 114 5
a 114 115 5
a 115 116 5
a 116 117 5
a 117 118 5
a 107 121 13
a 108 122 13
a 109 123 13
a 110 124 13
a 111 125 13
a 113 126 13
a 115 127 13
a 118 130 13
a 119 120 5
a 120 121 5
a 121 122 5
a 122 123 5
a 123 124 5
a 124 125 5
a 127 128 5
a 128 129 5
a 129 130 5
a 122 131 13
a 123 132 13
a 125 134 13
a 126 135 13
a 127 136 13
a 130 139 13
a 131 132 5
a 132 133 5
a 133 134 5
a 136 137 5
a 137 138 5
a 138 139 5
a 131 143 13
a 132 144 13
a 133 145 13
a 134 146 13
a 135 148 13
a 136 150 13
a 138 152 13
a 139 153 13
a 140 141 5
a 141 142 5
a 142 143 5
a 143 144 5
a 144 145 5
a 145 146 5
a 146 147 5
a 147 148 5
a 148 149 5
a 149 150 5
a 150 151 5
a 151 152 5
a 152 153 5
a 140 154 13
a 141 155 13
a 142 156 13
a 143 157 13
a 146 160 13
a 147 161 13
a 148 162 13
a 149 163 13
a 150 164 13
a 151 165 13
a 152 166 13
a 153 167 13
a 154 155 5
a 155 156 5
a 156 157 5
a 157 158 5
a 158 159 5
a 159 160 5
a 160 161 5
a 161 162 5
a 162 163 5
a 163 164 5
a 164 165 5
a 165 166 5
a 166 167 5
a 154 168 13
a 155 169 13
a 156 170 13
a 157 171 13
a 158 172 13
a 159 173 13
a 160 174 13
a 161 175 13
a 162 176 13
a 163 177 13
a 164 178 13
a 165 179 13
a 166 180 13
a 167 181 13
a 168 169 5
a 169 170 5
a 170 171 5
a 171 172 5
a 172 173 5
a 173 174 5
a 174 175 5
a 175 176 5
a 176 177 5
a 177 178 5
a 178 179 5
a 179 180 5
a 180 181 5
a 168 182 13
a 169 183 13
a 170 184 13
a 171 185 13
a 172 186 13
a 173 187 13
a 174 188 13
a 175 189 13
a 176 190 13
a 177 191 13
a 178 192 13
a 179 193 13
a 181 194 13
a 182 183 5
a 183 184 5
a 184 185 5
a 185 186 5
a 186 187 5
a 187 188 5
a 188 189 5
a 189 190 5
a 190 191 5
a 191 192 5
a 192 193 5
a 182 195 13
a 183 196 13
a 184 197 13
a 185 198 13
a 186 199 13
a 187 200 13
a 188 201 13
a 189 202 13
a 190 203 13
a 191 204 13
a 192 205 13
a 193 206 13
a 194 207 13
a 195 196 5
a 196 197 5
a 197 198 5
a 198 199 5
a 199 200 5
a 200 201 5
a 201 202 5
a 202 203 5
a 203 204 5
a 204 205 5
a 205 206 5
a 195 208 13
a 196 209 13
a 197 210 13
a 199 211 13
a 200 212 13
a 201 213 13
a 202 214 13
a 203 215 13
a 204 216 13
a 205 217 13
a 206 218 13
a 207 220 13
a 208 209 5
a 209 210 5
a 211 212 5
a 212 213 5
a 213 214 5
a 214 215 5
a 215 216 5
a 216 217 5
a 217 218 5
a 218 219 5
a 219 220 5
a 208 221 13
a 209 222 13
a 210 223 13
a 211 224 13
a 212 225 13
a 213 226 13
a 214 227 13
a 215 228 13
a 216 229 13
a 217 230 13
a 218 231 13
a 219 232 13
a 220 233 13
a 221 222 5
a 222 223 5
a 224 225 5
a 225 226 5
a 226 227 5
a 227 228 5
a 228 229 5
a 229 230 5
a 230 231 5
a 231 232 5
a 232 233 5